c An instance of conditional planning (by rintanen@informatik.uni-freiburg.de)
p cnf 107 453
e 44 45 46 47 48 49 50 51 52 53 54 55 56 57 58 59 60 61 62 63 64 65 66 67 68 69 70 71 72 73 74 75 76 77 78 79 0
a 89 88 90 0
e 1 2 3 4 5 6 7 8 9 10 11 12 13 14 15 16 17 18 19 20 21 22 23 24 25 26 27 28 29 30 31 32 33 34 35 36 37 38 39 40 41 42 43 80 81 82 83 84 85 86 87 91 92 93 94 95 96 97 98 99 100 101 102 103 104 105 106 107 0
-88 -89 -91 90 0
-88 -89 -92 90 0
-88 -89 -93 90 0
-88 -89 -94 90 0
-88 -89 -95 90 0
-88 -89 90 96 0
-88 -89 -97 90 0
-88 -89 -98 90 0
-89 -90 -91 88 0
-89 -90 -92 88 0
-89 -90 -93 88 0
-89 -90 -94 88 0
-89 -90 88 95 0
-89 -90 -96 88 0
-89 -90 -97 88 0
-89 -90 -98 88 0
-89 -91 88 90 0
-89 -92 88 90 0
-89 -93 88 90 0
-89 88 90 94 0
-89 -95 88 90 0
-89 -96 88 90 0
-89 -97 88 90 0
-89 -98 88 90 0
-88 -90 -91 89 0
-88 -90 -92 89 0
-88 -90 89 93 0
-88 -90 -94 89 0
-88 -90 -95 89 0
-88 -90 -96 89 0
-88 -90 -97 89 0
-88 -90 -98 89 0
-88 -91 89 90 0
-88 89 90 92 0
-88 -93 89 90 0
-88 -94 89 90 0
-88 -95 89 90 0
-88 -96 89 90 0
-88 -97 89 90 0
-88 -98 89 90 0
-90 88 89 91 0
-90 -92 88 89 0
-90 -93 88 89 0
-90 -94 88 89 0
-90 -95 88 89 0
-90 -96 88 89 0
-90 -97 88 89 0
-90 -98 88 89 0
-91 88 89 90 0
-92 88 89 90 0
-93 88 89 90 0
-94 88 89 90 0
-95 88 89 90 0
-96 88 89 90 0
-97 88 89 90 0
88 89 90 98 0
-88 -89 -90 -91 0
-88 -89 -90 -92 0
-88 -89 -90 -93 0
-88 -89 -90 -94 0
-88 -89 -90 -95 0
-88 -89 -90 -96 0
-88 -89 -90 97 0
-88 -89 -90 -98 0
-99 0
-100 0
-101 0
-102 0
-103 0
-104 0
-105 0
-106 0
-107 0
-44 -107 0
-44 -99 0
-4 -45 0
-1 -45 0
-5 -46 0
-2 -46 0
-48 -100 0
-48 -107 0
-9 -49 0
-4 -49 0
-10 -50 0
-5 -50 0
-52 -101 0
-52 -107 0
-14 -53 0
-4 -53 0
-15 -54 0
-5 -54 0
-56 -102 0
-56 -107 0
-19 -57 0
-4 -57 0
-20 -58 0
-5 -58 0
-60 -103 0
-60 -107 0
-24 -61 0
-4 -61 0
-25 -62 0
-5 -62 0
-64 -104 0
-64 -107 0
-29 -65 0
-4 -65 0
-30 -66 0
-5 -66 0
-68 -105 0
-68 -107 0
-34 -69 0
-4 -69 0
-35 -70 0
-5 -70 0
-72 -106 0
-72 -107 0
-39 -74 0
-4 -74 0
-40 -76 0
-5 -76 0
-73 107 0
-75 4 0
-77 5 0
-44 4 0
-7 -44 0
-44 1 0
-45 5 0
-8 -45 0
-45 2 0
-46 6 0
-46 -80 0
-46 3 0
-48 9 0
-12 -48 0
-48 4 0
-49 10 0
-13 -49 0
-49 5 0
-50 11 0
-50 -81 0
-50 6 0
-52 14 0
-17 -52 0
-52 4 0
-53 15 0
-18 -53 0
-53 5 0
-54 16 0
-54 -82 0
-54 6 0
-56 19 0
-22 -56 0
-56 4 0
-57 20 0
-23 -57 0
-57 5 0
-58 21 0
-58 -83 0
-58 6 0
-60 24 0
-27 -60 0
-60 4 0
-61 25 0
-28 -61 0
-61 5 0
-62 26 0
-62 -84 0
-62 6 0
-64 29 0
-32 -64 0
-64 4 0
-65 30 0
-33 -65 0
-65 5 0
-66 31 0
-66 -85 0
-66 6 0
-68 34 0
-37 -68 0
-68 4 0
-69 35 0
-38 -69 0
-69 5 0
-70 36 0
-70 -86 0
-70 6 0
-72 39 0
-42 -72 0
-72 4 0
-74 40 0
-43 -74 0
-74 5 0
-76 41 0
-76 -87 0
-76 6 0
-4 -73 0
-5 -75 0
-6 -77 0
-1 44 99 0
-2 1 45 0
-3 2 46 0
-99 1 0
-1 2 0
-2 3 0
-4 44 48 52 56 60 64 68 72 107 0
-5 4 45 49 53 57 61 65 69 74 0
-6 5 46 50 54 58 62 66 70 76 0
-107 4 73 0
-4 5 75 0
-5 6 77 0
-7 98 0
-8 7 0
-80 8 0
-98 7 44 0
-7 8 45 0
-8 46 80 0
-9 48 100 0
-10 9 49 0
-11 10 50 0
-100 9 0
-9 10 0
-10 11 0
-12 91 0
-13 12 0
-81 13 0
-91 12 48 0
-12 13 49 0
-13 50 81 0
-14 52 101 0
-15 14 53 0
-16 15 54 0
-101 14 0
-14 15 0
-15 16 0
-17 92 0
-18 17 0
-82 18 0
-92 17 52 0
-17 18 53 0
-18 54 82 0
-19 56 102 0
-20 19 57 0
-21 20 58 0
-102 19 0
-19 20 0
-20 21 0
-22 93 0
-23 22 0
-83 23 0
-93 22 56 0
-22 23 57 0
-23 58 83 0
-24 60 103 0
-25 24 61 0
-26 25 62 0
-103 24 0
-24 25 0
-25 26 0
-27 94 0
-28 27 0
-84 28 0
-94 27 60 0
-27 28 61 0
-28 62 84 0
-29 64 104 0
-30 29 65 0
-31 30 66 0
-104 29 0
-29 30 0
-30 31 0
-32 95 0
-33 32 0
-85 33 0
-95 32 64 0
-32 33 65 0
-33 66 85 0
-34 68 105 0
-35 34 69 0
-36 35 70 0
-105 34 0
-34 35 0
-35 36 0
-37 96 0
-38 37 0
-86 38 0
-96 37 68 0
-37 38 69 0
-38 70 86 0
-39 72 106 0
-40 39 74 0
-41 40 76 0
-106 39 0
-39 40 0
-40 41 0
-42 97 0
-43 42 0
-87 43 0
-97 42 72 0
-42 43 74 0
-43 76 87 0
-44 -48 0
-45 -49 0
-46 -50 0
-47 -51 0
-44 -52 0
-45 -53 0
-46 -54 0
-47 -55 0
-44 -56 0
-45 -57 0
-46 -58 0
-47 -59 0
-44 -60 0
-45 -61 0
-46 -62 0
-47 -63 0
-44 -64 0
-45 -65 0
-46 -66 0
-47 -67 0
-44 -68 0
-45 -69 0
-46 -70 0
-47 -71 0
-44 -72 0
-45 -74 0
-46 -76 0
-47 -78 0
-44 -73 0
-45 -75 0
-46 -77 0
-47 -79 0
-48 -52 0
-49 -53 0
-50 -54 0
-51 -55 0
-48 -56 0
-49 -57 0
-50 -58 0
-51 -59 0
-48 -60 0
-49 -61 0
-50 -62 0
-51 -63 0
-48 -64 0
-49 -65 0
-50 -66 0
-51 -67 0
-48 -68 0
-49 -69 0
-50 -70 0
-51 -71 0
-48 -72 0
-49 -74 0
-50 -76 0
-51 -78 0
-48 -73 0
-49 -75 0
-50 -77 0
-51 -79 0
-52 -56 0
-53 -57 0
-54 -58 0
-55 -59 0
-52 -60 0
-53 -61 0
-54 -62 0
-55 -63 0
-52 -64 0
-53 -65 0
-54 -66 0
-55 -67 0
-52 -68 0
-53 -69 0
-54 -70 0
-55 -71 0
-52 -72 0
-53 -74 0
-54 -76 0
-55 -78 0
-52 -73 0
-53 -75 0
-54 -77 0
-55 -79 0
-56 -60 0
-57 -61 0
-58 -62 0
-59 -63 0
-56 -64 0
-57 -65 0
-58 -66 0
-59 -67 0
-56 -68 0
-57 -69 0
-58 -70 0
-59 -71 0
-56 -72 0
-57 -74 0
-58 -76 0
-59 -78 0
-56 -73 0
-57 -75 0
-58 -77 0
-59 -79 0
-60 -64 0
-61 -65 0
-62 -66 0
-63 -67 0
-60 -68 0
-61 -69 0
-62 -70 0
-63 -71 0
-60 -72 0
-61 -74 0
-62 -76 0
-63 -78 0
-60 -73 0
-61 -75 0
-62 -77 0
-63 -79 0
-64 -68 0
-65 -69 0
-66 -70 0
-67 -71 0
-64 -72 0
-65 -74 0
-66 -76 0
-67 -78 0
-64 -73 0
-65 -75 0
-66 -77 0
-67 -79 0
-68 -72 0
-69 -74 0
-70 -76 0
-71 -78 0
-68 -73 0
-69 -75 0
-70 -77 0
-71 -79 0
-72 -73 0
-74 -75 0
-76 -77 0
-78 -79 0
-80 0
-81 0
-82 0
-83 0
-84 0
-85 0
-86 0
-87 0
